;; sequence(s): A285393
;; terms: 1 20 352 6080 104704 1802240 31019008 533872640 9188540416 158144921600 2721848492032 46846013603840 806271544459264 13876822236200960 238835410589974528 4110620744461844480 70748315180918112256 1217656507884193710080 20957211028999804813312
;; small program: loop2(2 * (2 * ((2 * (x + x)) + y)), 2 * (2 * (x + y)), x, 1, 1)
;; fast program: loop2((2 * (x + x)) + y, x + y, x - 1, (if x <= 0 then 0 else (2 + 2)) + 1, 2) * loop(x * x, 1, loop(x + x, x, 1))
(set-logic UFNIA)
(declare-fun f0 (Int Int) Int)
(declare-fun g0 (Int Int) Int)
(declare-fun h0 (Int) Int)
(declare-fun i0 () Int)
(declare-fun j0 () Int)
(declare-fun u0 (Int Int Int) Int)
(declare-fun v0 (Int Int Int) Int)
(declare-fun w0 (Int) Int)
(declare-fun small (Int) Int)
(declare-fun f1 (Int Int) Int)
(declare-fun g1 (Int Int) Int)
(declare-fun h1 (Int) Int)
(declare-fun i1 (Int) Int)
(declare-fun j1 () Int)
(declare-fun u1 (Int Int Int) Int)
(declare-fun v1 (Int Int Int) Int)
(declare-fun w1 (Int) Int)
(declare-fun f2 (Int) Int)
(declare-fun g2 () Int)
(declare-fun f3 (Int) Int)
(declare-fun g3 (Int) Int)
(declare-fun h3 () Int)
(declare-fun u3 (Int Int) Int)
(declare-fun v3 (Int) Int)
(declare-fun h2 (Int) Int)
(declare-fun u2 (Int Int) Int)
(declare-fun v2 (Int) Int)
(declare-fun fast (Int) Int)
(assert (forall ((x Int) (y Int)) (= (f0 x y) (* 2 (* 2 (+ (* 2 (+ x x)) y))))))
(assert (forall ((x Int) (y Int)) (= (g0 x y) (* 2 (* 2 (+ x y))))))
(assert (forall ((x Int)) (= (h0 x) x)))
(assert (= i0 1))
(assert (= j0 1))
(assert (forall ((x Int) (y Int) (z Int)) (= (u0 x y z) (ite (<= x 0) y (f0 (u0 (- x 1) y z) (v0 (- x 1) y z))))))
(assert (forall ((x Int) (y Int) (z Int)) (= (v0 x y z) (ite (<= x 0) z (g0 (u0 (- x 1) y z) (v0 (- x 1) y z))))))
(assert (forall ((x Int)) (= (w0 x) (u0 (h0 x) i0 j0))))
(assert (forall ((x Int)) (= (small x) (w0 x))))
(assert (forall ((x Int) (y Int)) (= (f1 x y) (+ (* 2 (+ x x)) y))))
(assert (forall ((x Int) (y Int)) (= (g1 x y) (+ x y))))
(assert (forall ((x Int)) (= (h1 x) (- x 1))))
(assert (forall ((x Int)) (= (i1 x) (+ (ite (<= x 0) 0 (+ 2 2)) 1))))
(assert (= j1 2))
(assert (forall ((x Int) (y Int) (z Int)) (= (u1 x y z) (ite (<= x 0) y (f1 (u1 (- x 1) y z) (v1 (- x 1) y z))))))
(assert (forall ((x Int) (y Int) (z Int)) (= (v1 x y z) (ite (<= x 0) z (g1 (u1 (- x 1) y z) (v1 (- x 1) y z))))))
(assert (forall ((x Int)) (= (w1 x) (u1 (h1 x) (i1 x) j1))))
(assert (forall ((x Int)) (= (f2 x) (* x x))))
(assert (= g2 1))
(assert (forall ((x Int)) (= (f3 x) (+ x x))))
(assert (forall ((x Int)) (= (g3 x) x)))
(assert (= h3 1))
(assert (forall ((x Int) (y Int)) (= (u3 x y) (ite (<= x 0) y (f3 (u3 (- x 1) y))))))
(assert (forall ((x Int)) (= (v3 x) (u3 (g3 x) h3))))
(assert (forall ((x Int)) (= (h2 x) (v3 x))))
(assert (forall ((x Int) (y Int)) (= (u2 x y) (ite (<= x 0) y (f2 (u2 (- x 1) y))))))
(assert (forall ((x Int)) (= (v2 x) (u2 g2 (h2 x)))))
(assert (forall ((x Int)) (= (fast x) (* (w1 x) (v2 x)))))
(assert (exists ((c Int)) (and (>= c 0) (not (= (small c) (fast c))))))
(check-sat)
